
Gurobi 7.5.2 (linux64) logging started Sat Jun 23 17:35:35 2018

Changed value of parameter LogFile to result/ilp/simNo_6-n_100-m_40-s_4-minVAF_0.05-cov_2000-k_2-fn_0.05-fp_0.0001-na_0.15.ILP.gurobiSolverLog
   Prev: gurobi.log  Default: 
Changed value of parameter TimeLimit to 86400.0
   Prev: 1e+100  Min: 0.0  Max: 1e+100  Default: 1e+100
Optimize a model with 1265601 rows, 330440 columns and 3489120 nonzeros
Variable types: 0 continuous, 330440 integer (330440 binary)
Coefficient statistics:
  Matrix range     [3e-03, 3e+00]
  Objective range  [6e-02, 9e+00]
  Bounds range     [1e+00, 1e+00]
  RHS range        [3e-01, 2e+00]
Found heuristic solution: objective -16273.81486
Presolve removed 340843 rows and 215165 columns (presolve time = 7s) ...
Presolve removed 341313 rows and 215165 columns (presolve time = 11s) ...
Presolve removed 341313 rows and 215165 columns (presolve time = 15s) ...
Presolve removed 341313 rows and 215165 columns (presolve time = 20s) ...
Presolve removed 341313 rows and 215165 columns (presolve time = 28s) ...
Presolve removed 341313 rows and 215165 columns (presolve time = 30s) ...
Presolve removed 341313 rows and 215165 columns (presolve time = 35s) ...
Presolve removed 341313 rows and 215165 columns (presolve time = 40s) ...
Presolve removed 341313 rows and 215165 columns (presolve time = 48s) ...
Presolve removed 341313 rows and 215165 columns (presolve time = 51s) ...
Presolve removed 341313 rows and 215165 columns
Presolve time: 50.69s
Presolved: 924288 rows, 115275 columns, 2563056 nonzeros
Variable types: 0 continuous, 115275 integer (115275 binary)
Presolved: 115275 rows, 1039563 columns, 2678331 nonzeros

Presolve removed 115275 rows and 1039563 columns

Root simplex log...

Iteration    Objective       Primal Inf.    Dual Inf.      Time
       0    7.1931668e+00   0.000000e+00   1.052410e+05     62s
   11994   -1.5766201e+02   0.000000e+00   2.745600e+04     65s
   16136   -1.8808745e+02   0.000000e+00   0.000000e+00     68s
   16136   -1.8808745e+02   0.000000e+00   0.000000e+00     71s

Root relaxation: objective -1.880875e+02, 16136 iterations, 16.38 seconds
Total elapsed time = 104.82s
Total elapsed time = 122.72s
Total elapsed time = 134.57s
Total elapsed time = 149.94s

    Nodes    |    Current Node    |     Objective Bounds      |     Work
 Expl Unexpl |  Obj  Depth IntInf | Incumbent    BestBd   Gap | It/Node Time

     0     0 -188.08745    0  664 -16273.815 -188.08745  98.8%     -  158s
H    0     0                    -10409.68507 -188.08745  98.2%     -  175s
H    0     0                    -273.3272570 -188.08745  31.2%     -  176s
H    0     0                    -237.0985768 -188.08745  20.7%     -  177s
     0     0 -192.41197    0  667 -237.09858 -192.41197  18.8%     -  192s
     0     0 -197.45723    0  701 -237.09858 -197.45723  16.7%     -  227s
H    0     0                    -234.2155697 -197.45723  15.7%     -  238s
     0     0 -197.45723    0  700 -234.21557 -197.45723  15.7%     -  242s
     0     0 -199.59216    0  558 -234.21557 -199.59216  14.8%     -  261s
H    0     0                    -234.1609155 -199.59216  14.8%     -  269s
     0     0 -200.35856    0  660 -234.16092 -200.35856  14.4%     -  285s
     0     0 -203.50710    0  609 -234.16092 -203.50710  13.1%     -  310s
     0     0 -203.50710    0  607 -234.16092 -203.50710  13.1%     -  323s
     0     0 -205.97595    0  566 -234.16092 -205.97595  12.0%     -  345s
     0     0 -205.97595    0  566 -234.16092 -205.97595  12.0%     -  360s
     0     0 -207.08798    0  519 -234.16092 -207.08798  11.6%     -  380s
     0     0 -207.16005    0  504 -234.16092 -207.16005  11.5%     -  398s
     0     0 -207.16005    0  506 -234.16092 -207.16005  11.5%     -  407s
     0     0 -208.25940    0  610 -234.16092 -208.25940  11.1%     -  423s
     0     0 -209.34963    0  589 -234.16092 -209.34963  10.6%     -  443s
     0     0 -209.34963    0  593 -234.16092 -209.34963  10.6%     -  452s
     0     0 -210.43920    0  589 -234.16092 -210.43920  10.1%     -  470s
H    0     0                    -223.9339541 -210.43920  6.03%     -  476s
     0     0 -210.43920    0  540 -223.93395 -210.43920  6.03%     -  485s
     0     0 -211.17854    0  432 -223.93395 -211.17854  5.70%     -  502s
     0     0 -211.45045    0  570 -223.93395 -211.45045  5.57%     -  519s
     0     0 -211.45045    0  537 -223.93395 -211.45045  5.57%     -  527s
     0     0 -212.90562    0  545 -223.93395 -212.90562  4.92%     -  549s
     0     0 -212.95800    0  551 -223.93395 -212.95800  4.90%     -  570s
     0     0 -212.95800    0  554 -223.93395 -212.95800  4.90%     -  579s
     0     0 -213.68071    0  565 -223.93395 -213.68071  4.58%     -  598s
     0     0 -213.68071    0  558 -223.93395 -213.68071  4.58%     -  614s
     0     0 -213.84343    0  242 -223.93395 -213.84343  4.51%     -  636s
     0     0 -213.84343    0  200 -223.93395 -213.84343  4.51%     -  653s
     0     0 -213.97447    0  303 -223.93395 -213.97447  4.45%     -  668s
     0     0 -213.97447    0  305 -223.93395 -213.97447  4.45%     -  684s
     0     0 -215.69679    0  293 -223.93395 -215.69679  3.68%     -  706s
     0     0 -215.86153    0  255 -223.93395 -215.86153  3.60%     -  722s
     0     0 -215.86153    0  253 -223.93395 -215.86153  3.60%     -  733s
     0     0 -216.72644    0  259 -223.93395 -216.72644  3.22%     -  751s
     0     0 -216.72644    0  297 -223.93395 -216.72644  3.22%     -  765s
     0     0 -216.72644    0  217 -223.93395 -216.72644  3.22%     -  776s
     0     0 -216.93237    0  290 -223.93395 -216.93237  3.13%     -  791s
     0     0 -216.96669    0  290 -223.93395 -216.96669  3.11%     -  798s
     0     0 -218.16794    0  287 -223.93395 -218.16794  2.57%     -  813s
     0     0 -218.16794    0  285 -223.93395 -218.16794  2.57%     -  825s
     0     0 -218.16794    0  285 -223.93395 -218.16794  2.57%     -  838s
     0     0 -218.16794    0  279 -223.93395 -218.16794  2.57%     -  848s
     0     0 -218.16794    0  206 -223.93395 -218.16794  2.57%     -  935s
     0     0 -218.16794    0  240 -223.93395 -218.16794  2.57%     -  949s
     0     0 -218.16794    0  126 -223.93395 -218.16794  2.57%     - 1023s
     0     0 -218.16794    0  164 -223.93395 -218.16794  2.57%     - 1038s
     0     0 -218.16794    0  210 -223.93395 -218.16794  2.57%     - 1090s
     0     0 -218.16794    0  110 -223.93395 -218.16794  2.57%     - 1153s
     0     0 -218.16794    0  354 -223.93395 -218.16794  2.57%     - 1348s
     0     0 -218.16794    0  131 -223.93395 -218.16794  2.57%     - 1353s
     0     0 -218.16794    0   88 -223.93395 -218.16794  2.57%     - 1356s
     0     0 -218.16794    0   82 -223.93395 -218.16794  2.57%     - 1357s
     0     0 -218.16794    0   73 -223.93395 -218.16794  2.57%     - 1359s
     0     0 -218.16794    0  104 -223.93395 -218.16794  2.57%     - 1362s
     0     0 -218.16794    0   70 -223.93395 -218.16794  2.57%     - 1364s
     0     0 -218.16794    0   91 -223.93395 -218.16794  2.57%     - 1368s
     0     0 -218.16794    0   91 -223.93395 -218.16794  2.57%     - 1369s
     0     0 -218.16794    0   92 -223.93395 -218.16794  2.57%     - 1373s
     0     0 -218.16794    0   99 -223.93395 -218.16794  2.57%     - 1375s
     0     0 -218.16794    0   68 -223.93395 -218.16794  2.57%     - 1381s
     0     0 -218.16794    0  107 -223.93395 -218.16794  2.57%     - 1383s
     0     0 -218.16794    0   68 -223.93395 -218.16794  2.57%     - 1389s
     0     0     cutoff    0      -223.93395 -223.93395  0.00%     - 1392s

Cutting planes:
  Gomory: 7
  Implied bound: 2
  Zero half: 49

Explored 1 nodes (56880 simplex iterations) in 1392.99 seconds
Thread count was 1 (of 80 available processors)

Solution count 8: -223.934 -223.934 -234.161 ... -16273.8

Optimal solution found (tolerance 1.00e-04)
Best objective -2.239339541178e+02, best bound -2.239339541178e+02, gap 0.0000%
